Version identifier: 22.1.1.0 | 2022-11-28 | 9160aff4d
CPXPARAM_ClockType                               1
CPXPARAM_Read_DataCheck                          1
CPXPARAM_Threads                                 1
CPXPARAM_TimeLimit                               7200
CPXPARAM_MIP_Tolerances_AbsMIPGap                0
CPXPARAM_MIP_Tolerances_MIPGap                   0
CPXPARAM_MIP_Tolerances_Integrality              0
Tried aggregator 2 times.
MIP Presolve eliminated 7448 rows and 42 columns.
MIP Presolve modified 2183 coefficients.
Aggregator did 791 substitutions.
Reduced MIP has 4935 rows, 3925 columns, and 21456 nonzeros.
Reduced MIP has 3925 binaries, 0 generals, 0 SOSs, and 0 indicators.
Presolve time = 0.04 sec. (30.87 ticks)
Found incumbent of value -6934.000000 after 0.08 sec. (66.54 ticks)
Probing time = 0.00 sec. (3.11 ticks)
Tried aggregator 1 time.
Detecting symmetries...
Reduced MIP has 4935 rows, 3925 columns, and 21456 nonzeros.
Reduced MIP has 3925 binaries, 0 generals, 0 SOSs, and 0 indicators.
Presolve time = 0.02 sec. (13.68 ticks)
Probing time = 0.01 sec. (3.10 ticks)
Clique table members: 1024.
MIP emphasis: balance optimality and feasibility.
MIP search method: dynamic search.
Parallel mode: none, using 1 thread.
Root relaxation solution time = 0.55 sec. (466.78 ticks)

        Nodes                                         Cuts/
   Node  Left     Objective  IInf  Best Integer    Best Bound    ItCnt     Gap

*     0+    0                        -6934.0000     3668.0000           152.90%
      0     0      953.6667   817    -6934.0000      953.6667     4636  113.75%
      0     0      902.6667   410    -6934.0000      Cuts: 83     5421  113.02%
      0     0      896.6667   388    -6934.0000     Cuts: 101     6177  112.93%
      0     0      896.6667   268    -6934.0000      Cuts: 74     6265  112.93%
*     0+    0                          702.0000      896.6667            27.73%
*     0+    0                          778.0000      896.6667            15.25%
*     0+    0                          784.0000      896.6667            14.37%
      0     0        cutoff            784.0000      896.6667     6265   14.37%
      0     0      896.6667   392      784.0000      Cuts: 18     6447   14.37%
*     0+    0                          896.0000      896.6667             0.07%
      0     0        cutoff            896.0000      896.6667     6447    0.07%
Elapsed time = 1.99 sec. (1647.25 ticks, tree = 0.01 MB, solutions = 5)

Clique cuts applied:  4
Cover cuts applied:  2
Implied bound cuts applied:  1
Zero-half cuts applied:  111

Root node processing (before b&c):
  Real time             =    1.99 sec. (1647.67 ticks)
Sequential b&c:
  Real time             =    0.00 sec. (0.00 ticks)
                          ------------
Total (root+branch&cut) =    1.99 sec. (1647.67 ticks)
Solution is feasible.

---------------------
@@@ MIP_optimal
>>> Benchmark mc2024_track1_006.cnf k 5 OPT 896 TimeCost 3.1241366863250732 TimeSolve 2.027191400527954 TimeRead 0.003934621810913086 TimeTrans 1.093010663986206
